Optimal - objective value 0.00000000
      0 sv_addi0                     0                       0
      1 sv_br1                       0                       0
      2 sv_br2                       0                       0
      3 sv_cmpi0                     0                       0
      4 sv_cond_br1                  0                       0
      5 sv_cond_br2                  0                       0
      6 sv_cond_br3                  0                       0
      7 sv_constant1                 0                       0
      8 sv_constant2                 0                       0
      9 sv_constant5                 0                       0
     10 sv_extui0                    0                       0
     11 sv_extui1                    0                       0
     12 sv_extui2                    0                       0
     13 sv_index_cast0               0                       0
     14 sv_index_cast1               0                       0
     15 sv_index_cast2               0                       0
     16 sv_index_cast3               0                       0
     17 sv_load0                     0                       0
     18 sv_load1                     0                       0
     19 sv_load2                     0                       0
     20 sv_muli0                     0                       0
     21 sv_phi0                      0                       0
     22 sv_phi1                      0                       0
     23 sv_return1                   0                       0
     24 sv_start0                    0                       0
     25 sv_store3                    0                       0
